s td 22 30 53
b 1 1 2 3 4 5 6 9 10 13 15 21 22 26 27 28 29 30 31 32 36 39 41 42 45 47 48 50 51 52 53
b 2 1 3 4 5 6 7 9 10 13 15 21 22 26 27 28 29 30 31 32 36 39 41 42 45 48 49 50 51 52 53
b 3 1 3 4 5 6 7 9 10 13 15 21 26 27 28 29 31 32 33 36 39 41 45 48 49 50 51 52 53
b 4 1 3 4 5 6 15 21 27 28 29 31 32 33 36 37 39 41 45 48 49 51 52 53
b 5 1 3 4 5 15 21 27 28 31 32 36 37 39 41 43 45 48 49 51 52 53
b 6 1 3 4 5 20 27 28 31 32 36 37 39 41 43 45 51 52
b 7 5 8 20 27 28 32 36 37 39 45
b 8 3 4 7 15 16 21 22 26 49 50
b 9 1 2 3 4 5 6 9 10 12 15 21 22 26 27 29 30 31 32 36 39 42 45 47 48 50 51 52 53
b 10 2 3 4 5 6 9 12 15 21 22 24 26 27 29 30 31 36 42 45 48 50 52 53
b 11 2 3 4 5 6 9 15 19 21 22 24 26 27 29 30 31 36 45 48 52 53
b 12 2 4 6 9 11 15 19 21 22 26 27 29 30 36 48 52
b 13 4 11 15 19 27 29 34 36 48 52
b 14 1 3 4 5 6 9 10 13 15 17 21 22 26 27 28 29 30 31 32 36 39 41 42 44 45 48 50 51 52 53
b 15 3 5 6 9 10 13 17 21 22 26 27 28 29 30 31 32 36 39 40 41 42 44 45 48 50 51 52 53
b 16 3 5 6 9 10 13 17 21 22 27 28 29 30 31 32 35 36 39 40 41 42 45 48 50 51 53
b 17 10 14 17 29 32 35 36 42 45 53
b 18 3 5 6 9 21 22 28 31 35 39 40 41 42 45 46 50 51
b 19 5 18 21 22 35 41 42 45 46 51
b 20 4 9 17 26 29 32 38 39 44 52
b 21 3 4 5 9 10 13 22 23 36 39 48 51 53
b 22 1 2 4 13 25 26 30 32 36 47
1 2
1 9
1 14
1 21
1 22
2 3
2 8
3 4
4 5
5 6
6 7
9 10
10 11
11 12
12 13
14 15
14 20
15 16
16 17
16 18
18 19
